
n_res = 6;
rcap = [54, 56, 1787, 1661, 1857, 1753];
rtype = [1, 1, 2, 2, 2, 2];
n_tasks = 100;
modes =  [{1, 2, 3, 4, 5, 6, 7, 8, 9}, {10, 11, 12, 13, 14, 15, 16, 17, 18}, {19, 20, 21, 22, 23, 24, 25, 26, 27}, {28, 29, 30, 31, 32, 33, 34, 35, 36}, {37, 38, 39, 40, 41, 42, 43, 44, 45}, {46, 47, 48, 49, 50, 51, 52, 53, 54}, {55, 56, 57, 58, 59, 60, 61, 62, 63}, {64, 65, 66, 67, 68, 69, 70, 71, 72}, {73, 74, 75, 76, 77, 78, 79, 80, 81}, {82, 83, 84, 85, 86, 87, 88, 89, 90}, {91, 92, 93, 94, 95, 96, 97, 98, 99}, {100, 101, 102, 103, 104, 105, 106, 107, 108}, {109, 110, 111, 112, 113, 114, 115, 116, 117}, {118, 119, 120, 121, 122, 123, 124, 125, 126}, {127, 128, 129, 130, 131, 132, 133, 134, 135}, {136, 137, 138, 139, 140, 141, 142, 143, 144}, {145, 146, 147, 148, 149, 150, 151, 152, 153}, {154, 155, 156, 157, 158, 159, 160, 161, 162}, {163, 164, 165, 166, 167, 168, 169, 170, 171}, {172, 173, 174, 175, 176, 177, 178, 179, 180}, {181, 182, 183, 184, 185, 186, 187, 188, 189}, {190, 191, 192, 193, 194, 195, 196, 197, 198}, {199, 200, 201, 202, 203, 204, 205, 206, 207}, {208, 209, 210, 211, 212, 213, 214, 215, 216}, {217, 218, 219, 220, 221, 222, 223, 224, 225}, {226, 227, 228, 229, 230, 231, 232, 233, 234}, {235, 236, 237, 238, 239, 240, 241, 242, 243}, {244, 245, 246, 247, 248, 249, 250, 251, 252}, {253, 254, 255, 256, 257, 258, 259, 260, 261}, {262, 263, 264, 265, 266, 267, 268, 269, 270}, {271, 272, 273, 274, 275, 276, 277, 278, 279}, {280, 281, 282, 283, 284, 285, 286, 287, 288}, {289, 290, 291, 292, 293, 294, 295, 296, 297}, {298, 299, 300, 301, 302, 303, 304, 305, 306}, {307, 308, 309, 310, 311, 312, 313, 314, 315}, {316, 317, 318, 319, 320, 321, 322, 323, 324}, {325, 326, 327, 328, 329, 330, 331, 332, 333}, {334, 335, 336, 337, 338, 339, 340, 341, 342}, {343, 344, 345, 346, 347, 348, 349, 350, 351}, {352, 353, 354, 355, 356, 357, 358, 359, 360}, {361, 362, 363, 364, 365, 366, 367, 368, 369}, {370, 371, 372, 373, 374, 375, 376, 377, 378}, {379, 380, 381, 382, 383, 384, 385, 386, 387}, {388, 389, 390, 391, 392, 393, 394, 395, 396}, {397, 398, 399, 400, 401, 402, 403, 404, 405}, {406, 407, 408, 409, 410, 411, 412, 413, 414}, {415, 416, 417, 418, 419, 420, 421, 422, 423}, {424, 425, 426, 427, 428, 429, 430, 431, 432}, {433, 434, 435, 436, 437, 438, 439, 440, 441}, {442, 443, 444, 445, 446, 447, 448, 449, 450}, {451, 452, 453, 454, 455, 456, 457, 458, 459}, {460, 461, 462, 463, 464, 465, 466, 467, 468}, {469, 470, 471, 472, 473, 474, 475, 476, 477}, {478, 479, 480, 481, 482, 483, 484, 485, 486}, {487, 488, 489, 490, 491, 492, 493, 494, 495}, {496, 497, 498, 499, 500, 501, 502, 503, 504}, {505, 506, 507, 508, 509, 510, 511, 512, 513}, {514, 515, 516, 517, 518, 519, 520, 521, 522}, {523, 524, 525, 526, 527, 528, 529, 530, 531}, {532, 533, 534, 535, 536, 537, 538, 539, 540}, {541, 542, 543, 544, 545, 546, 547, 548, 549}, {550, 551, 552, 553, 554, 555, 556, 557, 558}, {559, 560, 561, 562, 563, 564, 565, 566, 567}, {568, 569, 570, 571, 572, 573, 574, 575, 576}, {577, 578, 579, 580, 581, 582, 583, 584, 585}, {586, 587, 588, 589, 590, 591, 592, 593, 594}, {595, 596, 597, 598, 599, 600, 601, 602, 603}, {604, 605, 606, 607, 608, 609, 610, 611, 612}, {613, 614, 615, 616, 617, 618, 619, 620, 621}, {622, 623, 624, 625, 626, 627, 628, 629, 630}, {631, 632, 633, 634, 635, 636, 637, 638, 639}, {640, 641, 642, 643, 644, 645, 646, 647, 648}, {649, 650, 651, 652, 653, 654, 655, 656, 657}, {658, 659, 660, 661, 662, 663, 664, 665, 666}, {667, 668, 669, 670, 671, 672, 673, 674, 675}, {676, 677, 678, 679, 680, 681, 682, 683, 684}, {685, 686, 687, 688, 689, 690, 691, 692, 693}, {694, 695, 696, 697, 698, 699, 700, 701, 702}, {703, 704, 705, 706, 707, 708, 709, 710, 711}, {712, 713, 714, 715, 716, 717, 718, 719, 720}, {721, 722, 723, 724, 725, 726, 727, 728, 729}, {730, 731, 732, 733, 734, 735, 736, 737, 738}, {739, 740, 741, 742, 743, 744, 745, 746, 747}, {748, 749, 750, 751, 752, 753, 754, 755, 756}, {757, 758, 759, 760, 761, 762, 763, 764, 765}, {766, 767, 768, 769, 770, 771, 772, 773, 774}, {775, 776, 777, 778, 779, 780, 781, 782, 783}, {784, 785, 786, 787, 788, 789, 790, 791, 792}, {793, 794, 795, 796, 797, 798, 799, 800, 801}, {802, 803, 804, 805, 806, 807, 808, 809, 810}, {811, 812, 813, 814, 815, 816, 817, 818, 819}, {820, 821, 822, 823, 824, 825, 826, 827, 828}, {829, 830, 831, 832, 833, 834, 835, 836, 837}, {838, 839, 840, 841, 842, 843, 844, 845, 846}, {847, 848, 849, 850, 851, 852, 853, 854, 855}, {856, 857, 858, 859, 860, 861, 862, 863, 864}, {865, 866, 867, 868, 869, 870, 871, 872, 873}, {874, 875, 876, 877, 878, 879, 880, 881, 882}, {883, 884, 885, 886, 887, 888, 889, 890, 891}, {892, 893, 894, 895, 896, 897, 898, 899, 900}];
succ =  [{43, 40, 39, 38, 36, 30, 28, 23, 21, 18}, {66, 61, 57, 51, 48, 41, 39, 38, 33, 30, 28, 27, 19}, {50, 49, 45, 43, 39, 38, 37, 29, 27, 25, 18}, {60, 52, 50, 49, 48, 47, 43, 41, 40, 39, 37, 35, 34, 32, 29, 25}, {66, 61, 60, 54, 50, 48, 46, 45, 43, 40, 39, 38, 37, 36, 32, 28}, {60, 50, 43, 40, 36, 33, 29, 28, 21, 20}, {73, 66, 62, 61, 60, 57, 54, 50, 48, 46, 45, 42, 41, 39, 37, 36, 34, 33, 28}, {60, 57, 54, 50, 47, 41, 39, 37, 36, 29, 28, 21}, {60, 50, 47, 45, 43, 36, 35, 33, 28, 21}, {66, 54, 50, 47, 39, 33, 32, 28, 21}, {38, 36, 29, 28, 23, 21}, {62, 61, 60, 57, 54, 48, 46, 40, 37, 36, 29, 28}, {66, 62, 61, 60, 59, 58, 54, 51, 50, 48, 46, 42, 40, 36, 28}, {60, 50, 43, 39, 37, 36, 21}, {62, 60, 59, 57, 50, 48, 46, 43, 42, 40, 36, 33, 28}, {62, 61, 60, 59, 57, 56, 49, 47, 44, 42, 34, 33}, {66, 65, 62, 60, 59, 57, 56, 49, 46, 43, 42, 36, 33}, {62, 61, 59, 52, 48, 47, 46, 44, 42, 34, 33}, {65, 60, 54, 49, 47, 46, 44, 40, 37, 36}, {66, 62, 54, 52, 49, 48, 47, 44, 42, 37}, {86, 77, 73, 65, 62, 61, 59, 58, 56, 53, 52, 51, 49, 48, 46, 44, 42}, {65, 60, 56, 55, 52, 50, 48, 46, 44, 41, 39}, {77, 74, 73, 66, 62, 61, 60, 57, 54, 53, 52, 51, 48, 46, 42}, {86, 73, 66, 65, 63, 62, 60, 59, 58, 57, 56, 53, 52, 44, 42}, {71, 66, 65, 62, 59, 57, 56, 42, 33}, {86, 77, 65, 64, 61, 60, 58, 57, 56, 54, 53, 49, 44}, {77, 65, 64, 62, 60, 59, 58, 56, 54, 44, 42}, {86, 77, 72, 65, 64, 63, 56, 55, 53, 49, 44}, {86, 74, 71, 69, 66, 64, 63, 58, 53, 42}, {86, 78, 77, 69, 65, 64, 63, 59, 55, 50}, {84, 73, 72, 71, 68, 64, 62, 58, 57, 55, 54}, {74, 71, 69, 64, 63, 58, 57, 51, 42}, {86, 84, 77, 72, 69, 68, 64, 63, 58, 55, 53}, {85, 77, 74, 72, 71, 70, 69, 68, 67, 65, 51}, {100, 84, 82, 74, 73, 71, 70, 68, 66, 58, 54}, {99, 86, 85, 78, 74, 72, 70, 69, 68, 64, 63, 52}, {84, 82, 71, 70, 59, 58, 56, 53}, {84, 77, 76, 74, 72, 71, 69, 65, 64, 62, 53}, {98, 97, 86, 85, 84, 83, 82, 80, 77, 74, 70, 68, 63, 58}, {100, 98, 84, 80, 73, 72, 67, 64, 63, 55}, {84, 78, 74, 72, 70, 69, 63, 59, 53}, {98, 97, 84, 82, 81, 80, 75, 72, 68, 55}, {99, 98, 82, 78, 76, 75, 72, 53}, {100, 98, 96, 80, 78, 70, 69, 68, 67}, {99, 97, 96, 84, 82, 71, 70, 68, 63}, {99, 98, 97, 84, 82, 81, 78, 72, 70, 69}, {100, 98, 97, 86, 77, 76, 75, 73, 71, 68}, {100, 98, 94, 84, 80, 75, 67, 64}, {99, 98, 97, 95, 94, 92, 85, 84, 76, 75, 74, 71}, {100, 98, 95, 84, 82, 81, 76, 75, 74, 72, 71}, {100, 99, 98, 97, 96, 95, 94, 93, 91, 89, 88, 83, 80, 78}, {100, 98, 97, 96, 95, 94, 90, 84, 83, 82, 76, 75}, {100, 95, 94, 93, 91, 88, 80, 67}, {98, 96, 79, 69, 63}, {99, 96, 94, 85, 83, 79, 70}, {98, 97, 94, 91, 88, 80, 75, 74}, {100, 99, 98, 97, 94, 93, 92, 88, 80, 78}, {99, 95, 94, 92, 91, 88, 81, 78, 75}, {97, 92, 90, 79, 75, 68}, {97, 95, 92, 89, 76, 71}, {97, 94, 93, 81, 79, 72}, {99, 97, 96, 95, 94, 93, 90, 88, 87}, {95, 94, 92, 88, 81, 75}, {96, 95, 92, 91, 88, 87, 82}, {95, 94, 91, 89, 88, 87, 82}, {99, 97, 92, 91, 90, 89, 85}, {97, 89, 83, 81, 79}, {95, 94, 91, 89, 88, 87}, {94, 93, 91, 75}, {90, 89, 76}, {91, 80, 79}, {96, 92, 89, 87}, {94, 93, 92, 88}, {96, 93, 79}, {89, 87}, {91, 88}, {96, 88}, {79}, {87}, {90}, {90}, {93}, {92}, {87}, {93}, {95}, {}, {}, {}, {}, {}, {}, {}, {}, {}, {}, {}, {}, {}, {}];
n_opt = 900;
dur = [2, 7, 8, 16, 17, 18, 23, 25, 26, 8, 9, 14, 15, 21, 22, 27, 28, 29, 5, 8, 17, 20, 21, 22, 24, 25, 30, 5, 6, 7, 8, 11, 17, 19, 21, 27, 1, 3, 4, 6, 11, 12, 15, 16, 19, 3, 4, 5, 6, 13, 20, 25, 27, 30, 1, 8, 11, 12, 13, 20, 21, 22, 24, 6, 9, 10, 18, 21, 22, 23, 25, 26, 12, 13, 14, 15, 16, 17, 18, 19, 28, 1, 6, 8, 13, 16, 17, 26, 27, 28, 1, 5, 10, 15, 18, 20, 24, 27, 28, 1, 2, 3, 9, 10, 18, 20, 26, 27, 4, 5, 10, 12, 21, 24, 25, 26, 30, 2, 6, 11, 15, 16, 17, 21, 22, 29, 11, 12, 13, 14, 17, 18, 21, 23, 24, 1, 5, 6, 9, 10, 11, 21, 23, 28, 2, 3, 4, 5, 12, 20, 28, 29, 30, 7, 8, 11, 17, 20, 22, 23, 24, 29, 1, 2, 3, 5, 13, 16, 20, 21, 28, 3, 4, 7, 11, 12, 15, 27, 28, 29, 5, 6, 12, 17, 18, 20, 21, 25, 28, 9, 11, 12, 13, 18, 22, 23, 25, 29, 5, 12, 22, 23, 25, 26, 27, 28, 29, 2, 3, 6, 7, 11, 14, 16, 23, 30, 3, 5, 15, 18, 19, 25, 26, 28, 29, 7, 11, 12, 15, 17, 19, 25, 27, 30, 4, 5, 6, 7, 9, 21, 22, 28, 30, 2, 3, 9, 12, 13, 18, 19, 23, 26, 4, 10, 11, 13, 14, 17, 26, 28, 29, 4, 5, 7, 11, 15, 17, 20, 25, 28, 1, 11, 12, 13, 15, 20, 21, 25, 26, 12, 15, 23, 24, 25, 26, 28, 29, 30, 2, 5, 7, 10, 11, 12, 18, 25, 27, 1, 2, 6, 8, 14, 17, 18, 21, 23, 5, 9, 11, 15, 19, 21, 28, 29, 30, 2, 3, 11, 12, 14, 15, 18, 25, 26, 2, 9, 13, 16, 23, 26, 27, 28, 29, 1, 4, 5, 12, 16, 17, 21, 22, 25, 5, 7, 8, 10, 12, 14, 25, 27, 30, 9, 10, 11, 12, 18, 19, 26, 27, 28, 3, 5, 9, 11, 13, 14, 17, 18, 21, 6, 10, 11, 18, 19, 21, 23, 26, 27, 3, 8, 9, 11, 12, 21, 22, 28, 30, 5, 6, 7, 10, 12, 18, 19, 20, 21, 2, 3, 4, 5, 6, 17, 24, 27, 28, 3, 4, 7, 15, 16, 20, 23, 24, 27, 6, 9, 10, 15, 16, 17, 18, 27, 29, 2, 3, 4, 7, 21, 22, 23, 25, 28, 3, 5, 6, 16, 25, 26, 27, 28, 30, 6, 8, 9, 13, 14, 15, 16, 22, 23, 4, 8, 9, 13, 15, 16, 20, 25, 27, 8, 13, 14, 15, 17, 21, 22, 27, 29, 4, 5, 13, 17, 19, 22, 23, 24, 27, 3, 5, 7, 8, 9, 15, 21, 24, 25, 1, 4, 9, 10, 14, 15, 19, 22, 25, 1, 3, 5, 19, 20, 21, 26, 27, 28, 5, 10, 11, 12, 14, 15, 26, 29, 30, 2, 3, 4, 5, 10, 14, 19, 25, 30, 3, 5, 7, 8, 9, 19, 23, 24, 30, 1, 1, 2, 6, 7, 8, 10, 26, 29, 1, 2, 4, 6, 7, 9, 13, 19, 26, 2, 4, 10, 11, 15, 17, 20, 21, 22, 1, 7, 8, 9, 10, 12, 16, 19, 21, 10, 13, 14, 23, 24, 25, 26, 29, 30, 2, 3, 4, 8, 9, 16, 17, 18, 19, 5, 7, 10, 11, 14, 15, 19, 24, 28, 1, 2, 5, 6, 14, 16, 20, 21, 22, 2, 3, 7, 11, 14, 19, 20, 23, 30, 3, 5, 10, 12, 13, 14, 15, 26, 30, 2, 9, 11, 13, 14, 18, 24, 25, 29, 2, 5, 6, 10, 12, 14, 15, 29, 30, 5, 6, 15, 18, 19, 22, 25, 27, 29, 2, 5, 8, 10, 14, 18, 22, 26, 30, 3, 7, 9, 10, 16, 17, 18, 23, 27, 2, 8, 9, 10, 24, 25, 26, 27, 29, 6, 7, 11, 19, 20, 22, 23, 24, 29, 2, 6, 13, 15, 16, 18, 21, 22, 25, 3, 12, 13, 14, 17, 22, 23, 26, 27, 1, 2, 11, 18, 21, 24, 25, 28, 29, 4, 5, 13, 18, 21, 24, 25, 26, 27, 2, 3, 6, 9, 16, 20, 21, 25, 30, 1, 2, 3, 7, 12, 15, 25, 26, 28, 3, 5, 7, 9, 10, 15, 20, 25, 26, 2, 7, 10, 12, 20, 22, 24, 26, 28, 1, 10, 11, 14, 15, 16, 17, 19, 29, 4, 6, 7, 8, 10, 14, 19, 24, 28, 5, 6, 13, 15, 16, 17, 19, 21, 26, 2, 3, 10, 11, 12, 13, 21, 23, 24, 1, 2, 4, 15, 16, 25, 26, 27, 30, 2, 5, 10, 12, 13, 20, 22, 23, 29, 6, 8, 11, 12, 13, 16, 20, 21, 27, 2, 4, 5, 7, 8, 10, 12, 21, 28, 3, 5, 6, 13, 14, 18, 23, 27, 28, 1, 12, 13, 14, 15, 16, 24, 27, 28, 4, 9, 10, 16, 18, 24, 26, 27, 30, 3, 4, 13, 19, 20, 21, 27, 28, 30, 1, 2, 3, 8, 15, 16, 25, 26, 27, 3, 5, 8, 9, 10, 11, 12, 17, 18, 3, 10, 11, 13, 17, 19, 20, 23, 27, 5, 7, 17, 20, 21, 22, 23, 28, 29];
rreq = [|2, 2, 2, 2, 2, 2, 2, 2, 2, 4, 3, 3, 3, 3, 3, 3, 3, 3, 2, 2, 2, 2, 2, 2, 2, 2, 2, 4, 3, 3, 3, 2, 2, 2, 1, 1, 3, 2, 2, 2, 2, 1, 1, 1, 1, 2, 2, 2, 2, 2, 2, 2, 2, 2, 3, 2, 2, 2, 1, 1, 1, 1, 1, 5, 5, 5, 5, 5, 5, 5, 5, 5, 3, 3, 3, 2, 2, 2, 2, 1, 1, 4, 4, 3, 3, 2, 2, 2, 1, 1, 5, 4, 4, 4, 4, 4, 4, 4, 4, 4, 4, 4, 3, 3, 3, 3, 2, 2, 4, 3, 3, 3, 2, 2, 2, 2, 2, 2, 1, 1, 1, 1, 1, 1, 1, 1, 3, 3, 3, 3, 2, 2, 2, 2, 2, 2, 2, 2, 2, 2, 2, 2, 2, 2, 5, 4, 3, 3, 3, 2, 1, 1, 1, 5, 4, 4, 4, 3, 3, 3, 2, 2, 4, 3, 3, 3, 3, 2, 2, 2, 2, 4, 4, 4, 4, 4, 4, 4, 4, 4, 1, 1, 1, 1, 1, 1, 1, 1, 1, 3, 3, 3, 3, 3, 3, 3, 3, 3, 3, 3, 3, 3, 3, 3, 3, 3, 3, 4, 4, 4, 4, 3, 3, 3, 2, 2, 5, 4, 4, 3, 2, 2, 2, 1, 1, 4, 4, 4, 3, 3, 2, 2, 1, 1, 2, 2, 2, 2, 1, 1, 1, 1, 1, 3, 3, 3, 3, 3, 3, 3, 3, 3, 5, 4, 4, 4, 4, 3, 3, 3, 3, 4, 3, 3, 2, 2, 2, 2, 1, 1, 2, 1, 1, 1, 1, 1, 1, 1, 1, 3, 2, 2, 2, 2, 1, 1, 1, 1, 5, 5, 5, 5, 5, 5, 5, 5, 5, 2, 2, 2, 2, 2, 2, 2, 2, 2, 1, 1, 1, 1, 1, 1, 1, 1, 1, 2, 2, 2, 2, 1, 1, 1, 1, 1, 5, 4, 4, 4, 4, 4, 4, 4, 4, 2, 2, 2, 2, 2, 2, 2, 2, 2, 3, 2, 2, 2, 1, 1, 1, 1, 1, 4, 4, 4, 4, 4, 4, 4, 4, 4, 1, 1, 1, 1, 1, 1, 1, 1, 1, 5, 4, 4, 4, 4, 3, 3, 3, 3, 4, 4, 3, 3, 2, 2, 2, 1, 1, 4, 3, 3, 2, 2, 2, 1, 1, 1, 3, 2, 2, 2, 2, 1, 1, 1, 1, 3, 2, 2, 2, 2, 1, 1, 1, 1, 4, 3, 3, 3, 3, 3, 3, 3, 3, 4, 4, 4, 4, 4, 4, 4, 4, 4, 3, 3, 3, 2, 2, 2, 2, 1, 1, 2, 2, 2, 2, 2, 2, 2, 2, 2, 3, 2, 2, 2, 1, 1, 1, 1, 1, 5, 4, 4, 4, 3, 3, 3, 3, 3, 4, 3, 3, 3, 3, 3, 3, 3, 3, 4, 4, 4, 4, 3, 3, 3, 3, 3, 5, 4, 4, 4, 4, 3, 3, 3, 3, 3, 2, 2, 2, 2, 2, 2, 2, 2, 5, 5, 5, 5, 5, 5, 5, 5, 5, 5, 4, 4, 4, 4, 3, 3, 3, 3, 1, 1, 1, 1, 1, 1, 1, 1, 1, 2, 2, 2, 2, 2, 2, 2, 2, 2, 2, 1, 1, 1, 1, 1, 1, 1, 1, 1, 1, 1, 1, 1, 1, 1, 1, 1, 4, 4, 4, 4, 4, 4, 4, 4, 4, 2, 1, 1, 1, 1, 1, 1, 1, 1, 4, 3, 3, 3, 2, 2, 1, 1, 1, 4, 4, 4, 4, 4, 4, 4, 4, 4, 4, 4, 4, 4, 3, 3, 2, 2, 2, 4, 4, 4, 4, 4, 4, 4, 4, 4, 4, 4, 4, 4, 4, 4, 4, 4, 4, 3, 3, 3, 3, 3, 3, 3, 3, 3, 5, 4, 4, 4, 4, 4, 4, 4, 4, 3, 3, 3, 3, 2, 2, 2, 1, 1, 4, 3, 3, 2, 2, 2, 1, 1, 1, 2, 1, 1, 1, 1, 1, 1, 1, 1, 3, 2, 2, 2, 2, 2, 2, 2, 2, 5, 4, 4, 4, 4, 4, 4, 4, 4, 4, 3, 3, 3, 3, 2, 2, 2, 2, 1, 1, 1, 1, 1, 1, 1, 1, 1, 3, 3, 3, 3, 3, 3, 3, 3, 3, 4, 3, 3, 3, 2, 2, 2, 1, 1, 5, 4, 3, 3, 2, 2, 1, 1, 1, 2, 2, 2, 2, 1, 1, 1, 1, 1, 5, 4, 4, 4, 3, 3, 3, 3, 3, 5, 4, 4, 4, 3, 3, 2, 2, 2, 4, 4, 4, 4, 3, 3, 3, 2, 2, 3, 2, 2, 2, 1, 1, 1, 1, 1, 1, 1, 1, 1, 1, 1, 1, 1, 1, 5, 5, 5, 5, 5, 5, 5, 5, 5, 4, 4, 4, 3, 3, 2, 2, 1, 1, 4, 3, 3, 3, 2, 2, 2, 1, 1, 4, 3, 3, 3, 2, 2, 2, 2, 2, 5, 4, 4, 4, 4, 3, 3, 3, 3, 5, 4, 4, 4, 4, 4, 4, 4, 4, 3, 2, 2, 2, 2, 2, 2, 2, 2, 5, 4, 4, 3, 3, 2, 2, 1, 1, 5, 5, 5, 5, 5, 5, 5, 5, 5, 3, 2, 2, 2, 2, 2, 2, 2, 2, 3, 3, 3, 3, 3, 3, 3, 3, 3, 3, 2, 2, 2, 2, 2, 2, 2, 2, 3, 2, 2, 2, 1, 1, 1, 1, 1
 |5, 4, 4, 4, 4, 3, 3, 3, 3, 4, 4, 4, 4, 4, 4, 4, 4, 4, 2, 2, 2, 2, 2, 1, 1, 1, 1, 5, 4, 3, 3, 3, 2, 1, 1, 1, 5, 4, 4, 4, 4, 4, 4, 4, 4, 4, 4, 4, 4, 4, 4, 4, 4, 4, 4, 4, 4, 4, 4, 3, 3, 3, 3, 3, 3, 3, 3, 2, 2, 1, 1, 1, 4, 4, 4, 4, 4, 4, 4, 4, 4, 4, 3, 3, 2, 2, 2, 2, 1, 1, 2, 2, 2, 2, 2, 2, 2, 2, 2, 1, 1, 1, 1, 1, 1, 1, 1, 1, 3, 3, 3, 3, 2, 2, 2, 1, 1, 4, 4, 4, 3, 3, 3, 3, 2, 2, 3, 3, 3, 2, 2, 2, 1, 1, 1, 3, 3, 3, 3, 2, 2, 2, 1, 1, 5, 4, 4, 4, 4, 3, 3, 3, 3, 2, 2, 2, 2, 2, 2, 2, 2, 2, 2, 2, 2, 2, 1, 1, 1, 1, 1, 4, 3, 3, 3, 3, 3, 3, 3, 3, 4, 4, 4, 4, 3, 3, 3, 3, 3, 2, 2, 2, 2, 2, 2, 2, 2, 2, 2, 2, 2, 2, 2, 2, 2, 2, 2, 4, 4, 4, 4, 4, 4, 4, 4, 4, 4, 3, 3, 3, 2, 2, 1, 1, 1, 3, 3, 3, 3, 3, 3, 3, 3, 3, 1, 1, 1, 1, 1, 1, 1, 1, 1, 2, 2, 2, 2, 2, 2, 2, 2, 2, 4, 4, 4, 4, 4, 3, 3, 3, 3, 5, 4, 4, 4, 4, 3, 3, 3, 3, 3, 3, 3, 3, 2, 2, 1, 1, 1, 4, 4, 4, 3, 3, 3, 2, 2, 2, 4, 3, 3, 3, 2, 2, 2, 1, 1, 5, 4, 3, 3, 2, 2, 1, 1, 1, 4, 4, 4, 4, 4, 4, 4, 4, 4, 1, 1, 1, 1, 1, 1, 1, 1, 1, 3, 3, 3, 3, 3, 3, 3, 3, 3, 3, 3, 3, 3, 2, 2, 2, 2, 2, 4, 4, 4, 4, 4, 4, 4, 4, 4, 5, 4, 4, 4, 4, 4, 4, 4, 4, 4, 4, 4, 4, 3, 3, 3, 2, 2, 1, 1, 1, 1, 1, 1, 1, 1, 1, 4, 4, 4, 4, 4, 4, 4, 4, 4, 4, 3, 3, 2, 2, 2, 1, 1, 1, 4, 3, 3, 3, 3, 2, 2, 2, 2, 2, 2, 2, 2, 1, 1, 1, 1, 1, 1, 1, 1, 1, 1, 1, 1, 1, 1, 3, 3, 3, 2, 2, 2, 1, 1, 1, 4, 4, 4, 4, 4, 4, 4, 4, 4, 4, 3, 3, 3, 2, 2, 2, 1, 1, 5, 4, 4, 3, 3, 3, 3, 2, 2, 3, 2, 2, 2, 2, 1, 1, 1, 1, 5, 4, 4, 3, 3, 3, 3, 2, 2, 3, 3, 3, 3, 3, 3, 3, 3, 3, 1, 1, 1, 1, 1, 1, 1, 1, 1, 3, 2, 2, 2, 1, 1, 1, 1, 1, 4, 4, 4, 4, 4, 4, 4, 4, 4, 3, 3, 3, 3, 2, 2, 1, 1, 1, 3, 3, 3, 3, 3, 3, 3, 3, 3, 5, 4, 4, 3, 2, 2, 1, 1, 1, 4, 4, 4, 4, 4, 4, 4, 4, 4, 4, 4, 4, 4, 3, 3, 3, 3, 3, 5, 4, 4, 4, 3, 3, 2, 2, 2, 5, 4, 4, 3, 3, 2, 1, 1, 1, 4, 3, 3, 3, 3, 3, 3, 3, 3, 2, 2, 2, 2, 1, 1, 1, 1, 1, 1, 1, 1, 1, 1, 1, 1, 1, 1, 4, 4, 3, 3, 3, 2, 1, 1, 1, 5, 5, 5, 5, 5, 5, 5, 5, 5, 4, 3, 3, 2, 2, 2, 1, 1, 1, 3, 2, 2, 2, 2, 2, 2, 2, 2, 4, 4, 4, 4, 4, 4, 4, 4, 4, 4, 4, 4, 3, 2, 2, 2, 1, 1, 2, 1, 1, 1, 1, 1, 1, 1, 1, 3, 2, 2, 2, 1, 1, 1, 1, 1, 5, 4, 3, 3, 3, 2, 1, 1, 1, 1, 1, 1, 1, 1, 1, 1, 1, 1, 4, 4, 4, 3, 3, 3, 2, 2, 2, 1, 1, 1, 1, 1, 1, 1, 1, 1, 4, 3, 3, 2, 2, 2, 1, 1, 1, 3, 2, 2, 2, 2, 2, 2, 2, 2, 4, 4, 4, 3, 3, 3, 2, 2, 2, 1, 1, 1, 1, 1, 1, 1, 1, 1, 4, 4, 4, 4, 4, 4, 4, 4, 4, 1, 1, 1, 1, 1, 1, 1, 1, 1, 3, 3, 3, 3, 3, 3, 3, 3, 3, 5, 5, 5, 5, 5, 5, 5, 5, 5, 1, 1, 1, 1, 1, 1, 1, 1, 1, 2, 2, 2, 2, 1, 1, 1, 1, 1, 1, 1, 1, 1, 1, 1, 1, 1, 1, 4, 3, 3, 3, 3, 3, 3, 3, 3, 3, 3, 3, 2, 2, 2, 2, 1, 1, 2, 1, 1, 1, 1, 1, 1, 1, 1, 2, 1, 1, 1, 1, 1, 1, 1, 1, 5, 4, 4, 4, 4, 4, 4, 4, 4, 4, 4, 4, 4, 4, 4, 4, 4, 4, 3, 3, 3, 3, 3, 3, 3, 3, 3, 4, 3, 3, 2, 2, 2, 1, 1, 1, 3, 2, 2, 2, 2, 2, 2, 2, 2, 3, 2, 2, 2, 2, 2, 2, 2, 2
 |6, 5, 5, 5, 5, 5, 5, 5, 5, 21, 19, 18, 18, 15, 13, 12, 10, 10, 17, 17, 16, 15, 15, 14, 13, 13, 12, 13, 13, 11, 10, 10, 9, 8, 7, 7, 21, 21, 20, 19, 18, 16, 14, 14, 12, 27, 24, 19, 17, 15, 13, 10, 7, 2, 8, 7, 7, 6, 5, 5, 3, 2, 2, 21, 19, 19, 17, 17, 15, 14, 14, 13, 20, 18, 15, 13, 11, 8, 5, 5, 3, 19, 18, 18, 18, 18, 18, 18, 18, 18, 7, 6, 5, 4, 4, 3, 3, 2, 1, 15, 15, 15, 14, 14, 14, 13, 13, 13, 29, 26, 26, 25, 22, 21, 18, 18, 15, 15, 14, 12, 12, 10, 10, 8, 7, 6, 11, 10, 9, 8, 7, 7, 7, 6, 5, 25, 22, 19, 18, 14, 13, 10, 8, 6, 19, 18, 17, 17, 14, 13, 13, 12, 11, 4, 3, 3, 3, 2, 2, 1, 1, 1, 5, 5, 5, 4, 4, 4, 3, 3, 3, 27, 27, 25, 24, 22, 20, 19, 16, 15, 20, 18, 16, 12, 12, 11, 8, 5, 5, 19, 19, 15, 14, 10, 10, 7, 5, 3, 17, 16, 14, 14, 11, 10, 9, 7, 6, 25, 25, 21, 19, 19, 16, 14, 11, 11, 26, 24, 22, 20, 18, 16, 14, 14, 11, 24, 21, 21, 17, 16, 13, 12, 8, 5, 26, 23, 21, 20, 17, 12, 10, 9, 6, 20, 19, 19, 19, 19, 19, 19, 19, 19, 30, 30, 30, 30, 30, 30, 30, 30, 30, 15, 14, 14, 14, 14, 14, 14, 14, 14, 23, 21, 18, 16, 15, 15, 11, 11, 8, 10, 9, 8, 6, 6, 4, 4, 3, 1, 23, 23, 21, 20, 18, 18, 17, 16, 15, 20, 19, 19, 17, 17, 17, 16, 15, 14, 16, 13, 12, 10, 10, 8, 7, 4, 4, 29, 26, 26, 25, 23, 21, 19, 19, 17, 5, 5, 5, 5, 4, 4, 4, 3, 3, 26, 25, 23, 22, 20, 19, 17, 17, 15, 8, 7, 7, 7, 6, 6, 5, 5, 5, 20, 20, 20, 19, 19, 19, 18, 18, 18, 18, 16, 15, 15, 13, 13, 11, 11, 10, 28, 27, 27, 26, 26, 26, 26, 25, 25, 30, 29, 28, 27, 25, 24, 24, 22, 22, 19, 17, 17, 16, 15, 15, 14, 13, 13, 28, 25, 25, 24, 21, 19, 18, 16, 15, 18, 18, 18, 18, 18, 18, 18, 18, 18, 27, 26, 21, 18, 17, 14, 9, 7, 3, 23, 22, 20, 20, 18, 16, 15, 14, 11, 15, 13, 11, 9, 8, 8, 6, 4, 4, 29, 28, 28, 28, 28, 28, 28, 28, 28, 18, 17, 17, 17, 15, 15, 15, 13, 13, 4, 3, 3, 3, 3, 2, 2, 2, 2, 18, 17, 17, 16, 16, 15, 15, 14, 14, 25, 24, 21, 18, 17, 13, 13, 9, 8, 26, 25, 25, 25, 25, 24, 24, 24, 24, 9, 8, 8, 8, 7, 7, 7, 6, 6, 28, 28, 27, 25, 25, 23, 22, 22, 21, 24, 24, 24, 24, 24, 24, 24, 24, 24, 20, 20, 20, 20, 19, 19, 19, 19, 19, 29, 29, 29, 28, 28, 28, 27, 27, 27, 21, 18, 17, 16, 15, 14, 13, 12, 11, 13, 12, 10, 10, 9, 8, 6, 5, 5, 23, 23, 22, 22, 21, 21, 20, 20, 20, 26, 26, 26, 26, 26, 26, 26, 26, 26, 12, 11, 10, 8, 8, 7, 6, 3, 2, 24, 23, 23, 23, 23, 22, 22, 22, 22, 12, 11, 11, 9, 6, 5, 4, 2, 1, 29, 25, 23, 22, 21, 17, 14, 13, 11, 23, 23, 23, 23, 22, 22, 22, 22, 22, 28, 26, 25, 22, 22, 20, 19, 16, 14, 29, 29, 29, 29, 28, 28, 28, 27, 27, 27, 26, 24, 22, 21, 19, 17, 17, 16, 29, 26, 25, 22, 21, 17, 17, 15, 13, 25, 22, 20, 19, 14, 13, 11, 6, 3, 25, 22, 21, 18, 18, 15, 12, 10, 8, 8, 7, 7, 7, 6, 6, 6, 6, 6, 16, 16, 15, 14, 12, 11, 10, 9, 9, 30, 27, 26, 24, 23, 22, 19, 18, 17, 24, 21, 18, 15, 14, 11, 10, 5, 3, 29, 29, 29, 29, 29, 29, 29, 29, 29, 16, 15, 14, 14, 14, 13, 12, 12, 12, 11, 10, 8, 7, 7, 6, 6, 4, 4, 7, 6, 6, 6, 6, 6, 6, 6, 6, 27, 25, 22, 19, 18, 16, 15, 11, 11, 29, 27, 26, 24, 22, 21, 19, 18, 16, 18, 17, 17, 17, 16, 16, 16, 16, 16, 9, 7, 6, 5, 5, 4, 3, 2, 1, 5, 5, 4, 3, 3, 3, 2, 2, 1, 24, 22, 19, 16, 15, 12, 10, 5, 3, 11, 11, 11, 11, 11, 10, 10, 10, 10, 4, 3, 3, 2, 2, 2, 1, 1, 1, 30, 30, 30, 30, 30, 30, 30, 30, 30, 28, 27, 27, 26, 26, 25, 25, 25, 24, 22, 20, 17, 16, 14, 9, 6, 4, 1, 27, 26, 20, 17, 15, 13, 10, 8, 6, 16, 16, 16, 16, 16, 16, 16, 16, 16, 29, 25, 25, 22, 19, 15, 12, 10, 8, 29, 28, 28, 28, 26, 26, 26, 25, 24, 15, 15, 15, 14, 14, 13, 12, 12, 12, 21, 20, 18, 16, 14, 12, 12, 10, 9
 |14, 14, 13, 12, 12, 12, 11, 10, 10, 23, 21, 17, 14, 13, 9, 7, 5, 3, 18, 18, 16, 15, 15, 14, 13, 11, 11, 29, 28, 27, 26, 26, 25, 25, 25, 24, 26, 26, 25, 23, 21, 20, 20, 18, 17, 28, 26, 25, 23, 22, 19, 17, 16, 15, 16, 15, 15, 15, 15, 15, 15, 15, 15, 17, 15, 14, 13, 10, 7, 6, 5, 3, 24, 23, 22, 21, 21, 20, 20, 18, 18, 8, 8, 8, 8, 8, 7, 7, 7, 7, 11, 9, 9, 7, 7, 6, 6, 4, 4, 20, 19, 16, 16, 14, 12, 10, 8, 6, 25, 25, 23, 20, 18, 17, 17, 13, 12, 28, 23, 22, 19, 18, 17, 15, 13, 9, 26, 26, 25, 22, 22, 20, 18, 18, 16, 23, 23, 23, 22, 22, 21, 20, 20, 20, 23, 21, 18, 18, 16, 13, 12, 10, 9, 24, 23, 19, 16, 15, 11, 7, 4, 4, 25, 24, 21, 19, 17, 15, 13, 11, 11, 24, 24, 22, 22, 20, 19, 18, 16, 15, 18, 15, 14, 13, 11, 10, 9, 7, 6, 12, 11, 11, 10, 9, 8, 7, 5, 5, 22, 19, 16, 16, 14, 9, 8, 5, 4, 8, 7, 7, 7, 5, 5, 5, 3, 3, 20, 18, 16, 15, 14, 11, 9, 8, 5, 20, 19, 18, 18, 17, 17, 16, 16, 16, 26, 26, 26, 26, 26, 26, 26, 26, 26, 21, 19, 16, 15, 13, 10, 7, 5, 4, 17, 15, 13, 12, 10, 10, 8, 8, 7, 18, 17, 17, 16, 14, 14, 12, 11, 11, 20, 19, 19, 18, 17, 17, 15, 15, 14, 1, 1, 1, 1, 1, 1, 1, 1, 1, 23, 22, 20, 17, 16, 14, 11, 8, 8, 13, 11, 11, 10, 10, 10, 9, 8, 8, 11, 9, 9, 9, 8, 7, 7, 6, 6, 10, 10, 10, 10, 10, 9, 9, 9, 9, 6, 6, 5, 5, 4, 4, 3, 3, 2, 18, 18, 18, 17, 17, 16, 15, 15, 15, 23, 22, 21, 21, 19, 19, 18, 17, 17, 15, 14, 12, 11, 10, 10, 9, 7, 6, 26, 20, 19, 16, 14, 10, 7, 6, 1, 8, 7, 6, 6, 5, 5, 4, 4, 4, 26, 25, 25, 25, 24, 24, 24, 23, 23, 13, 13, 13, 13, 12, 12, 12, 11, 11, 28, 28, 28, 27, 27, 27, 26, 26, 26, 27, 27, 26, 25, 25, 25, 24, 23, 23, 12, 10, 10, 8, 7, 7, 5, 5, 3, 17, 15, 15, 14, 14, 13, 13, 13, 12, 23, 19, 19, 15, 14, 13, 10, 9, 6, 17, 16, 15, 15, 14, 13, 11, 11, 10, 9, 9, 9, 9, 9, 8, 8, 8, 8, 22, 22, 22, 21, 21, 20, 20, 19, 19, 26, 23, 22, 19, 17, 17, 13, 13, 11, 26, 23, 21, 19, 18, 16, 13, 12, 10, 26, 22, 20, 18, 16, 13, 10, 4, 1, 14, 12, 12, 10, 9, 8, 6, 6, 5, 5, 4, 4, 4, 4, 4, 4, 4, 4, 15, 14, 13, 12, 11, 11, 10, 9, 9, 25, 23, 22, 20, 16, 14, 11, 10, 5, 22, 21, 21, 20, 20, 19, 19, 18, 18, 22, 21, 21, 21, 21, 21, 21, 21, 21, 3, 2, 2, 2, 2, 2, 2, 2, 2, 24, 21, 21, 18, 13, 10, 8, 4, 3, 20, 19, 19, 17, 17, 16, 15, 13, 13, 22, 22, 22, 22, 21, 21, 21, 20, 20, 24, 20, 19, 18, 14, 12, 12, 10, 8, 29, 29, 29, 29, 29, 28, 28, 28, 28, 24, 22, 21, 18, 18, 15, 14, 13, 11, 23, 21, 21, 19, 18, 18, 17, 15, 14, 14, 12, 11, 10, 8, 7, 5, 4, 2, 15, 15, 14, 14, 14, 13, 12, 12, 12, 30, 29, 29, 29, 28, 28, 28, 28, 28, 4, 3, 3, 3, 2, 2, 2, 1, 1, 21, 19, 17, 16, 15, 13, 10, 9, 9, 14, 13, 12, 12, 11, 11, 9, 9, 8, 8, 7, 7, 6, 5, 5, 4, 4, 4, 20, 19, 19, 18, 18, 17, 16, 16, 16, 19, 17, 17, 16, 16, 16, 15, 14, 14, 24, 21, 18, 16, 14, 11, 7, 6, 2, 12, 11, 10, 10, 9, 8, 8, 7, 6, 26, 25, 23, 21, 21, 19, 16, 16, 14, 11, 11, 11, 10, 9, 9, 8, 8, 8, 26, 24, 23, 21, 20, 19, 18, 16, 14, 17, 17, 16, 15, 14, 14, 14, 13, 12, 29, 28, 28, 28, 28, 28, 28, 28, 28, 13, 13, 11, 10, 9, 9, 8, 7, 5, 17, 15, 13, 11, 10, 9, 8, 6, 4, 24, 21, 20, 15, 13, 10, 10, 6, 4, 6, 5, 5, 4, 4, 4, 3, 3, 3, 12, 10, 10, 9, 8, 7, 6, 4, 3, 14, 13, 12, 12, 10, 10, 9, 7, 6, 24, 23, 23, 23, 22, 22, 22, 22, 22, 9, 8, 8, 8, 7, 7, 7, 7, 7, 23, 20, 20, 18, 18, 17, 15, 14, 13, 4, 3, 3, 3, 2, 2, 2, 2, 2, 25, 25, 25, 25, 25, 25, 25, 25, 25, 12, 11, 10, 8, 7, 7, 6, 5, 3, 4, 3, 3, 3, 2, 2, 2, 2, 2, 29, 29, 29, 29, 29, 29, 29, 29, 29, 26, 25, 24, 23, 21, 21, 19, 18, 18
 |14, 13, 13, 13, 13, 13, 13, 13, 13, 28, 26, 22, 21, 20, 17, 14, 14, 11, 10, 9, 9, 8, 8, 8, 7, 7, 7, 27, 26, 26, 24, 24, 22, 21, 21, 19, 14, 12, 12, 10, 8, 6, 5, 3, 2, 14, 13, 13, 11, 11, 10, 9, 8, 8, 26, 25, 24, 21, 21, 20, 18, 16, 15, 13, 13, 13, 12, 11, 11, 10, 10, 10, 26, 26, 26, 26, 25, 25, 25, 25, 25, 19, 17, 13, 12, 10, 9, 5, 5, 3, 23, 22, 21, 20, 20, 20, 18, 17, 17, 25, 23, 20, 17, 17, 14, 14, 10, 9, 11, 11, 10, 8, 7, 7, 6, 5, 4, 27, 27, 27, 27, 27, 27, 27, 27, 27, 23, 20, 16, 15, 12, 12, 9, 8, 5, 7, 6, 6, 5, 5, 4, 4, 3, 3, 25, 24, 22, 21, 17, 16, 16, 14, 11, 20, 19, 17, 15, 13, 12, 9, 7, 5, 10, 9, 9, 9, 9, 9, 9, 9, 9, 14, 12, 11, 10, 9, 7, 5, 3, 3, 12, 11, 9, 9, 6, 5, 4, 4, 2, 13, 12, 12, 12, 11, 11, 11, 11, 11, 18, 16, 15, 15, 13, 13, 12, 11, 10, 16, 15, 14, 12, 12, 11, 10, 10, 9, 13, 13, 13, 13, 13, 13, 13, 13, 13, 21, 19, 18, 17, 17, 15, 14, 14, 13, 29, 27, 25, 24, 22, 21, 18, 16, 15, 24, 21, 18, 15, 13, 13, 9, 8, 6, 23, 21, 21, 19, 18, 16, 14, 14, 12, 16, 15, 15, 15, 14, 14, 14, 14, 14, 25, 25, 23, 22, 21, 19, 18, 18, 17, 24, 24, 20, 18, 16, 14, 12, 10, 6, 27, 21, 20, 17, 16, 11, 10, 8, 3, 25, 24, 23, 23, 23, 22, 21, 21, 21, 20, 17, 16, 15, 13, 10, 8, 7, 4, 6, 6, 6, 6, 6, 6, 6, 6, 6, 12, 12, 11, 11, 9, 9, 9, 8, 7, 26, 23, 22, 17, 14, 11, 8, 6, 4, 28, 27, 25, 23, 21, 18, 16, 13, 12, 25, 22, 19, 18, 15, 12, 12, 10, 6, 8, 6, 6, 6, 5, 5, 4, 3, 3, 29, 28, 27, 26, 25, 23, 23, 22, 21, 24, 23, 22, 20, 17, 17, 16, 14, 11, 16, 15, 12, 11, 8, 7, 4, 2, 1, 18, 17, 16, 14, 12, 7, 5, 4, 3, 24, 23, 22, 21, 20, 19, 19, 18, 17, 29, 29, 29, 29, 28, 28, 28, 28, 28, 25, 22, 20, 16, 13, 11, 9, 8, 7, 21, 20, 20, 20, 20, 19, 19, 19, 19, 27, 27, 25, 22, 19, 17, 13, 12, 10, 17, 16, 14, 13, 12, 11, 10, 9, 8, 22, 21, 21, 20, 18, 16, 14, 13, 12, 24, 22, 22, 20, 19, 16, 14, 12, 11, 29, 28, 28, 28, 27, 27, 27, 27, 27, 27, 27, 27, 26, 26, 26, 26, 25, 25, 27, 27, 23, 23, 19, 19, 16, 15, 12, 25, 24, 21, 16, 14, 11, 9, 5, 5, 24, 21, 20, 20, 17, 17, 15, 14, 12, 7, 6, 6, 6, 6, 6, 6, 6, 6, 24, 22, 22, 20, 16, 13, 11, 10, 6, 12, 10, 10, 9, 9, 9, 8, 8, 7, 30, 29, 27, 27, 26, 25, 23, 23, 22, 16, 15, 12, 11, 9, 8, 6, 5, 5, 29, 26, 26, 24, 22, 18, 16, 16, 14, 16, 16, 14, 14, 12, 12, 11, 10, 9, 25, 25, 22, 19, 17, 17, 14, 11, 11, 17, 14, 13, 12, 9, 8, 6, 5, 3, 24, 24, 24, 23, 22, 22, 21, 21, 21, 29, 28, 24, 22, 20, 19, 16, 14, 14, 25, 20, 18, 17, 15, 13, 8, 6, 5, 19, 15, 14, 12, 10, 9, 5, 5, 2, 28, 28, 28, 28, 28, 28, 28, 28, 28, 27, 24, 21, 20, 17, 13, 10, 8, 7, 29, 28, 28, 27, 27, 27, 26, 26, 25, 24, 19, 18, 13, 13, 8, 7, 5, 1, 18, 17, 17, 16, 15, 15, 14, 14, 13, 18, 16, 15, 14, 13, 10, 10, 9, 8, 23, 23, 22, 20, 19, 19, 18, 16, 15, 17, 16, 16, 16, 15, 15, 14, 14, 14, 20, 16, 15, 13, 11, 10, 8, 7, 6, 27, 23, 23, 19, 17, 16, 14, 11, 11, 16, 16, 16, 15, 15, 15, 15, 14, 14, 26, 26, 25, 25, 24, 23, 23, 23, 22, 24, 19, 18, 15, 14, 12, 10, 9, 7, 26, 24, 23, 20, 19, 17, 16, 14, 11, 18, 17, 16, 15, 15, 15, 14, 12, 12, 27, 26, 23, 21, 19, 18, 15, 13, 13, 24, 22, 18, 17, 14, 12, 10, 8, 8, 24, 23, 23, 23, 23, 22, 22, 22, 22, 13, 13, 12, 11, 9, 8, 5, 4, 4, 4, 3, 3, 3, 3, 3, 3, 3, 3, 27, 27, 27, 27, 27, 27, 27, 27, 27, 17, 14, 13, 9, 8, 8, 6, 3, 1, 27, 27, 27, 27, 27, 27, 27, 27, 27, 15, 14, 14, 13, 11, 10, 9, 9, 7, 27, 25, 23, 20, 17, 15, 15, 11, 11, 28, 25, 23, 22, 21, 20, 18, 14, 13, 23, 20, 19, 18, 14, 12, 9, 7, 5, 26, 26, 25, 25, 24, 23, 22, 22, 21, 12, 12, 12, 11, 11, 11, 11, 10, 10
 |16, 15, 15, 13, 11, 10, 10, 9, 8, 23, 21, 21, 18, 14, 12, 9, 8, 5, 27, 26, 22, 21, 19, 16, 15, 10, 10, 16, 13, 12, 11, 9, 8, 8, 6, 5, 17, 16, 15, 13, 12, 12, 10, 9, 9, 20, 20, 19, 18, 16, 16, 15, 14, 13, 27, 26, 25, 22, 21, 19, 17, 15, 14, 27, 26, 26, 25, 24, 24, 23, 23, 23, 30, 26, 21, 19, 18, 15, 12, 8, 4, 24, 21, 21, 20, 18, 16, 15, 13, 11, 24, 24, 24, 23, 22, 22, 21, 21, 21, 28, 23, 22, 16, 13, 12, 9, 7, 4, 8, 7, 7, 6, 6, 6, 5, 5, 5, 15, 15, 14, 13, 12, 10, 10, 9, 8, 11, 11, 11, 11, 11, 11, 11, 11, 11, 28, 26, 24, 22, 21, 20, 18, 16, 16, 20, 20, 19, 19, 18, 18, 17, 17, 16, 20, 20, 16, 16, 12, 10, 9, 8, 6, 18, 17, 16, 16, 16, 15, 15, 14, 13, 19, 19, 19, 19, 19, 18, 18, 18, 18, 28, 27, 26, 25, 23, 22, 21, 21, 20, 23, 21, 18, 17, 14, 10, 10, 5, 5, 22, 21, 19, 17, 16, 14, 13, 12, 11, 16, 15, 15, 15, 14, 14, 14, 14, 14, 27, 24, 20, 20, 17, 15, 12, 9, 7, 24, 22, 22, 21, 21, 20, 20, 19, 19, 13, 12, 11, 11, 10, 9, 8, 7, 5, 13, 13, 13, 13, 13, 12, 12, 12, 12, 6, 5, 5, 5, 5, 5, 5, 4, 5, 22, 22, 21, 19, 18, 17, 17, 16, 14, 22, 21, 20, 19, 18, 17, 17, 15, 15, 23, 23, 22, 22, 21, 21, 20, 19, 19, 24, 18, 17, 16, 13, 8, 8, 4, 3, 15, 15, 13, 12, 11, 11, 10, 8, 8, 19, 18, 16, 14, 12, 8, 6, 5, 2, 27, 26, 24, 24, 22, 21, 21, 19, 19, 14, 14, 13, 12, 12, 11, 11, 11, 10, 21, 20, 16, 15, 12, 11, 7, 7, 4, 13, 13, 13, 13, 13, 13, 13, 13, 13, 14, 12, 11, 11, 10, 9, 8, 6, 5, 3, 3, 3, 2, 2, 2, 2, 1, 1, 10, 8, 8, 8, 7, 6, 5, 4, 4, 29, 28, 28, 28, 28, 28, 28, 28, 28, 17, 15, 12, 12, 9, 8, 8, 5, 5, 16, 14, 13, 13, 11, 11, 10, 9, 7, 26, 26, 22, 20, 18, 18, 16, 12, 10, 29, 26, 24, 23, 22, 18, 18, 15, 13, 27, 26, 24, 24, 21, 20, 18, 17, 15, 30, 28, 25, 24, 22, 20, 19, 18, 16, 12, 11, 9, 8, 8, 7, 5, 5, 4, 26, 23, 22, 17, 16, 13, 13, 10, 8, 27, 23, 22, 20, 17, 17, 15, 13, 10, 15, 14, 13, 12, 12, 10, 10, 9, 7, 18, 17, 13, 11, 9, 8, 6, 4, 3, 16, 15, 13, 11, 8, 6, 6, 3, 2, 28, 27, 26, 25, 24, 24, 23, 22, 21, 23, 22, 22, 21, 20, 18, 18, 17, 16, 6, 5, 5, 5, 4, 4, 4, 4, 4, 24, 21, 20, 20, 19, 17, 16, 16, 14, 25, 26, 25, 25, 25, 25, 25, 25, 25, 5, 4, 4, 4, 3, 3, 3, 3, 3, 11, 10, 8, 7, 7, 4, 3, 3, 1, 7, 7, 7, 7, 7, 7, 7, 7, 7, 14, 12, 10, 9, 7, 6, 4, 4, 3, 24, 22, 20, 19, 17, 16, 12, 11, 10, 16, 15, 15, 15, 15, 15, 15, 15, 15, 26, 26, 26, 26, 25, 25, 24, 24, 24, 22, 19, 19, 15, 14, 11, 8, 7, 5, 27, 25, 23, 23, 22, 20, 18, 16, 15, 28, 27, 25, 24, 23, 22, 19, 18, 16, 8, 8, 8, 8, 8, 8, 8, 8, 8, 30, 27, 26, 25, 25, 24, 23, 22, 21, 2, 2, 2, 2, 2, 1, 1, 1, 1, 25, 25, 23, 22, 21, 20, 19, 18, 18, 27, 26, 25, 25, 25, 24, 24, 23, 23, 7, 6, 6, 6, 6, 6, 6, 5, 6, 25, 23, 23, 21, 19, 17, 15, 11, 10, 17, 17, 16, 16, 16, 15, 15, 14, 14, 19, 18, 18, 16, 15, 15, 14, 13, 12, 2, 1, 1, 1, 1, 1, 1, 1, 1, 9, 8, 8, 7, 7, 7, 6, 6, 6, 25, 23, 23, 21, 21, 19, 19, 18, 17, 27, 26, 24, 20, 18, 17, 16, 12, 12, 29, 26, 25, 21, 21, 20, 17, 15, 14, 29, 26, 22, 20, 17, 15, 12, 11, 7, 23, 22, 22, 21, 20, 18, 17, 17, 16, 23, 22, 22, 22, 21, 21, 21, 21, 21, 24, 23, 23, 21, 20, 19, 18, 18, 16, 14, 14, 14, 14, 14, 14, 14, 14, 14, 10, 9, 9, 8, 7, 7, 7, 6, 6, 18, 14, 13, 11, 9, 8, 6, 3, 2, 6, 5, 4, 4, 3, 2, 1, 2, 1, 22, 22, 22, 22, 22, 21, 21, 21, 21, 28, 23, 20, 18, 16, 13, 10, 4, 2, 22, 22, 22, 21, 21, 21, 21, 20, 20, 21, 21, 17, 15, 14, 14, 12, 9, 7, 15, 15, 15, 15, 15, 15, 15, 15, 15, 30, 26, 26, 23, 21, 21, 18, 16, 15, 19, 18, 17, 17, 16, 16, 15, 14, 15, 24, 23, 21, 21, 20, 19, 17, 16, 16|];